100
100
100
100
100
99
99
99
99
98
97
96
95
94
94
91
90
90
90
89
89
89
88
88
87
87
86
85
85
85
84
82
81
80
80
79
79
77
76
74
73
71
70
69
68
68
67
67
66
65
65
65
62
62
62
59
59
59
57
57
55
55
54
51
50
49
47
47
46
45
45
43
42
41
41
41
39
38
37
35
35
34
34
34
33
32
31
30
29
29
27
26
26
25
24
24
24
21
21
21
20
20
